
;this file is automatically generated: Fri Oct 30 17:03:58 CST 2020

;declarations generated

(declare-fun class11_Class11IntAttr4 ( Int) Int)
(declare-fun oclExcludes ( Int Int) Bool)
(declare-fun class11_Class11IntAttr3 ( Int) Int)
(declare-fun type_8c95fbbc_1e43_4cca_8ec5_fdbba995cbce_Class10 ( Int) Bool)
(declare-fun type_8c95fbbc_1e43_4cca_8ec5_fdbba995cbce_Class19 ( Int) Bool)
(declare-fun type_8c95fbbc_1e43_4cca_8ec5_fdbba995cbce_Class18 ( Int) Bool)
(declare-fun type_8c95fbbc_1e43_4cca_8ec5_fdbba995cbce_Class17 ( Int) Bool)
(declare-fun type_8c95fbbc_1e43_4cca_8ec5_fdbba995cbce_Class16 ( Int) Bool)
(declare-fun type_8c95fbbc_1e43_4cca_8ec5_fdbba995cbce_Class15 ( Int) Bool)
(declare-fun type_8c95fbbc_1e43_4cca_8ec5_fdbba995cbce_Class14 ( Int) Bool)
(declare-fun type_8c95fbbc_1e43_4cca_8ec5_fdbba995cbce_Class13 ( Int) Bool)
(declare-fun type_8c95fbbc_1e43_4cca_8ec5_fdbba995cbce_Class12 ( Int) Bool)
(declare-fun type_8c95fbbc_1e43_4cca_8ec5_fdbba995cbce_Class11 ( Int) Bool)
(declare-fun type_8c95fbbc_1e43_4cca_8ec5_fdbba995cbce_Class21 ( Int) Bool)
(declare-fun type_8c95fbbc_1e43_4cca_8ec5_fdbba995cbce_Class20 ( Int) Bool)
(declare-fun Cardinality ( Int) Int)
(declare-fun type_8c95fbbc_1e43_4cca_8ec5_fdbba995cbce_Class29 ( Int) Bool)
(declare-fun type_8c95fbbc_1e43_4cca_8ec5_fdbba995cbce_Class28 ( Int) Bool)
(declare-fun type_8c95fbbc_1e43_4cca_8ec5_fdbba995cbce_Class27 ( Int) Bool)
(declare-fun type_8c95fbbc_1e43_4cca_8ec5_fdbba995cbce_Class26 ( Int) Bool)
(declare-fun type_8c95fbbc_1e43_4cca_8ec5_fdbba995cbce_Class25 ( Int) Bool)
(declare-fun type_8c95fbbc_1e43_4cca_8ec5_fdbba995cbce_Class24 ( Int) Bool)
(declare-fun type_8c95fbbc_1e43_4cca_8ec5_fdbba995cbce_Class23 ( Int) Bool)
(declare-fun type_8c95fbbc_1e43_4cca_8ec5_fdbba995cbce_Class22 ( Int) Bool)
(declare-fun type_8c95fbbc_1e43_4cca_8ec5_fdbba995cbce_Class32 ( Int) Bool)
(declare-fun type_8c95fbbc_1e43_4cca_8ec5_fdbba995cbce_Class31 ( Int) Bool)
(declare-fun type_8c95fbbc_1e43_4cca_8ec5_fdbba995cbce_Class30 ( Int) Bool)
(declare-fun type_8c95fbbc_1e43_4cca_8ec5_fdbba995cbce_Class39 ( Int) Bool)
(declare-fun type_8c95fbbc_1e43_4cca_8ec5_fdbba995cbce_Class38 ( Int) Bool)
(declare-fun type_8c95fbbc_1e43_4cca_8ec5_fdbba995cbce_Class37 ( Int) Bool)
(declare-fun type_8c95fbbc_1e43_4cca_8ec5_fdbba995cbce_Class36 ( Int) Bool)
(declare-fun type_8c95fbbc_1e43_4cca_8ec5_fdbba995cbce_Class35 ( Int) Bool)
(declare-fun type_8c95fbbc_1e43_4cca_8ec5_fdbba995cbce_Class34 ( Int) Bool)
(declare-fun type_8c95fbbc_1e43_4cca_8ec5_fdbba995cbce_Class33 ( Int) Bool)
(declare-fun type_8c95fbbc_1e43_4cca_8ec5_fdbba995cbce_Class43 ( Int) Bool)
(declare-fun type_8c95fbbc_1e43_4cca_8ec5_fdbba995cbce_Class42 ( Int) Bool)
(declare-fun type_8c95fbbc_1e43_4cca_8ec5_fdbba995cbce_Class41 ( Int) Bool)
(declare-fun type_8c95fbbc_1e43_4cca_8ec5_fdbba995cbce_Class40 ( Int) Bool)
(declare-fun type_8c95fbbc_1e43_4cca_8ec5_fdbba995cbce_Class49 ( Int) Bool)
(declare-fun type_8c95fbbc_1e43_4cca_8ec5_fdbba995cbce_Class48 ( Int) Bool)
(declare-fun type_8c95fbbc_1e43_4cca_8ec5_fdbba995cbce_Class47 ( Int) Bool)
(declare-fun type_8c95fbbc_1e43_4cca_8ec5_fdbba995cbce_Class46 ( Int) Bool)
(declare-fun type_8c95fbbc_1e43_4cca_8ec5_fdbba995cbce_Class45 ( Int) Bool)
(declare-fun type_8c95fbbc_1e43_4cca_8ec5_fdbba995cbce_Class44 ( Int) Bool)
(declare-fun type_8c95fbbc_1e43_4cca_8ec5_fdbba995cbce_Class54 ( Int) Bool)
(declare-fun type_8c95fbbc_1e43_4cca_8ec5_fdbba995cbce_Class53 ( Int) Bool)
(declare-fun type_8c95fbbc_1e43_4cca_8ec5_fdbba995cbce_Class52 ( Int) Bool)
(declare-fun type_8c95fbbc_1e43_4cca_8ec5_fdbba995cbce_Class51 ( Int) Bool)
(declare-fun type_8c95fbbc_1e43_4cca_8ec5_fdbba995cbce_Class50 ( Int) Bool)
(declare-fun type_8c95fbbc_1e43_4cca_8ec5_fdbba995cbce_Class55 ( Int) Bool)
(declare-fun oclSelect ( Int Bool) Int)
(declare-fun obj_361149f9_93ce_403a_9a0f_47b097067f23 ( Int) Int)
(declare-fun type_8c95fbbc_1e43_4cca_8ec5_fdbba995cbce_Class7 ( Int) Bool)
(declare-fun type_8c95fbbc_1e43_4cca_8ec5_fdbba995cbce_Class6 ( Int) Bool)
(declare-fun type_8c95fbbc_1e43_4cca_8ec5_fdbba995cbce_Class5 ( Int) Bool)
(declare-fun type_8c95fbbc_1e43_4cca_8ec5_fdbba995cbce_Class4 ( Int) Bool)
(declare-fun type_8c95fbbc_1e43_4cca_8ec5_fdbba995cbce_Class3 ( Int) Bool)
(declare-fun type_8c95fbbc_1e43_4cca_8ec5_fdbba995cbce_Class2 ( Int) Bool)
(declare-fun type_8c95fbbc_1e43_4cca_8ec5_fdbba995cbce_Class1 ( Int) Bool)
(declare-fun type_8c95fbbc_1e43_4cca_8ec5_fdbba995cbce_Class0 ( Int) Bool)
(declare-fun type_8c95fbbc_1e43_4cca_8ec5_fdbba995cbce_Class9 ( Int) Bool)
(declare-fun Enum0 ( Int) Int)
(declare-fun type_8c95fbbc_1e43_4cca_8ec5_fdbba995cbce_Class8 ( Int) Bool)
(declare-fun Enum1 ( Int) Int)
(declare-fun Enum2 ( Int) Int)
(declare-fun container_ ( Int) Int)
(declare-fun class11_Class11BoolAttr0 ( Int) Bool)
(declare-fun class11_Class11BoolAttr1 ( Int) Bool)
(declare-fun class11_Class11BoolAttr2 ( Int) Bool)
(declare-fun oclIncludes ( Int Int) Bool)
(declare-fun ObjAt ( Int Int) Int)

;formula(s) generated
(assert (! (exists ((c1 Int)(c2 Int)) (and (and ( type_8c95fbbc_1e43_4cca_8ec5_fdbba995cbce_Class11 c1 )  ( type_8c95fbbc_1e43_4cca_8ec5_fdbba995cbce_Class11 c2 ) ) (or ( class11_Class11BoolAttr0 ( obj_361149f9_93ce_403a_9a0f_47b097067f23 c1 )  )  ( class11_Class11BoolAttr2 ( obj_361149f9_93ce_403a_9a0f_47b097067f23 c2 )  ) ))):named l0))
(assert (! (forall ((v Int)) (=> ( type_8c95fbbc_1e43_4cca_8ec5_fdbba995cbce_Class11 v )  (and (< ( class11_Class11IntAttr3 ( obj_361149f9_93ce_403a_9a0f_47b097067f23 v )  )  4) (and (forall ((v Int)) (=> ( type_8c95fbbc_1e43_4cca_8ec5_fdbba995cbce_Class11 v )  ( class11_Class11BoolAttr1 ( obj_361149f9_93ce_403a_9a0f_47b097067f23 v )  ) )) (forall ((v Int)) (=> ( type_8c95fbbc_1e43_4cca_8ec5_fdbba995cbce_Class11 v )  ( class11_Class11BoolAttr2 ( obj_361149f9_93ce_403a_9a0f_47b097067f23 v )  ) )))))):named l1))
(assert (! (forall ((c1_2 Int)(c1_1 Int)) (=> (and ( type_8c95fbbc_1e43_4cca_8ec5_fdbba995cbce_Class11 c1_1 )  ( type_8c95fbbc_1e43_4cca_8ec5_fdbba995cbce_Class11 c1_2 ) ) (< ( class11_Class11IntAttr3 ( obj_361149f9_93ce_403a_9a0f_47b097067f23 c1_1 )  )  ( class11_Class11IntAttr4 ( obj_361149f9_93ce_403a_9a0f_47b097067f23 c1_2 )  ) ))):named l2))
(assert (! (forall ((c1_2 Int)(c1_1 Int)) (=> (and ( type_8c95fbbc_1e43_4cca_8ec5_fdbba995cbce_Class11 c1_1 )  ( type_8c95fbbc_1e43_4cca_8ec5_fdbba995cbce_Class11 c1_2 ) ) (<= ( class11_Class11IntAttr4 ( obj_361149f9_93ce_403a_9a0f_47b097067f23 c1_1 )  )  ( class11_Class11IntAttr3 ( obj_361149f9_93ce_403a_9a0f_47b097067f23 c1_2 )  ) ))):named l3))
(assert (! (exists ((o Int)) ( type_8c95fbbc_1e43_4cca_8ec5_fdbba995cbce_Class0 ( obj_361149f9_93ce_403a_9a0f_47b097067f23 o )  ) ):named c0))
(assert (! (exists ((o Int)) (and (and (and (and (and ( type_8c95fbbc_1e43_4cca_8ec5_fdbba995cbce_Class1 ( obj_361149f9_93ce_403a_9a0f_47b097067f23 o )  )  ( type_8c95fbbc_1e43_4cca_8ec5_fdbba995cbce_Class45 ( obj_361149f9_93ce_403a_9a0f_47b097067f23 o )  ) ) ( type_8c95fbbc_1e43_4cca_8ec5_fdbba995cbce_Class12 ( obj_361149f9_93ce_403a_9a0f_47b097067f23 o )  ) ) ( type_8c95fbbc_1e43_4cca_8ec5_fdbba995cbce_Class33 ( obj_361149f9_93ce_403a_9a0f_47b097067f23 o )  ) ) ( type_8c95fbbc_1e43_4cca_8ec5_fdbba995cbce_Class22 ( obj_361149f9_93ce_403a_9a0f_47b097067f23 o )  ) ) ( type_8c95fbbc_1e43_4cca_8ec5_fdbba995cbce_Class39 ( obj_361149f9_93ce_403a_9a0f_47b097067f23 o )  ) )):named c1))
(assert (! (exists ((o Int)) (and (and (and (and (and (and (and (and (and ( type_8c95fbbc_1e43_4cca_8ec5_fdbba995cbce_Class10 ( obj_361149f9_93ce_403a_9a0f_47b097067f23 o )  )  ( type_8c95fbbc_1e43_4cca_8ec5_fdbba995cbce_Class45 ( obj_361149f9_93ce_403a_9a0f_47b097067f23 o )  ) ) ( type_8c95fbbc_1e43_4cca_8ec5_fdbba995cbce_Class12 ( obj_361149f9_93ce_403a_9a0f_47b097067f23 o )  ) ) ( type_8c95fbbc_1e43_4cca_8ec5_fdbba995cbce_Class55 ( obj_361149f9_93ce_403a_9a0f_47b097067f23 o )  ) ) ( type_8c95fbbc_1e43_4cca_8ec5_fdbba995cbce_Class33 ( obj_361149f9_93ce_403a_9a0f_47b097067f23 o )  ) ) ( type_8c95fbbc_1e43_4cca_8ec5_fdbba995cbce_Class22 ( obj_361149f9_93ce_403a_9a0f_47b097067f23 o )  ) ) ( type_8c95fbbc_1e43_4cca_8ec5_fdbba995cbce_Class29 ( obj_361149f9_93ce_403a_9a0f_47b097067f23 o )  ) ) ( type_8c95fbbc_1e43_4cca_8ec5_fdbba995cbce_Class39 ( obj_361149f9_93ce_403a_9a0f_47b097067f23 o )  ) ) ( type_8c95fbbc_1e43_4cca_8ec5_fdbba995cbce_Class50 ( obj_361149f9_93ce_403a_9a0f_47b097067f23 o )  ) ) ( type_8c95fbbc_1e43_4cca_8ec5_fdbba995cbce_Class41 ( obj_361149f9_93ce_403a_9a0f_47b097067f23 o )  ) )):named c2))
(assert (! (exists ((o Int)) ( type_8c95fbbc_1e43_4cca_8ec5_fdbba995cbce_Class11 ( obj_361149f9_93ce_403a_9a0f_47b097067f23 o )  ) ):named c3))
(assert (! (exists ((o Int)) (and (and (and ( type_8c95fbbc_1e43_4cca_8ec5_fdbba995cbce_Class12 ( obj_361149f9_93ce_403a_9a0f_47b097067f23 o )  )  ( type_8c95fbbc_1e43_4cca_8ec5_fdbba995cbce_Class33 ( obj_361149f9_93ce_403a_9a0f_47b097067f23 o )  ) ) ( type_8c95fbbc_1e43_4cca_8ec5_fdbba995cbce_Class22 ( obj_361149f9_93ce_403a_9a0f_47b097067f23 o )  ) ) ( type_8c95fbbc_1e43_4cca_8ec5_fdbba995cbce_Class39 ( obj_361149f9_93ce_403a_9a0f_47b097067f23 o )  ) )):named c4))
(assert (! (exists ((o Int)) (and (and (and (and (and (and (and (and (and ( type_8c95fbbc_1e43_4cca_8ec5_fdbba995cbce_Class13 ( obj_361149f9_93ce_403a_9a0f_47b097067f23 o )  )  ( type_8c95fbbc_1e43_4cca_8ec5_fdbba995cbce_Class45 ( obj_361149f9_93ce_403a_9a0f_47b097067f23 o )  ) ) ( type_8c95fbbc_1e43_4cca_8ec5_fdbba995cbce_Class12 ( obj_361149f9_93ce_403a_9a0f_47b097067f23 o )  ) ) ( type_8c95fbbc_1e43_4cca_8ec5_fdbba995cbce_Class55 ( obj_361149f9_93ce_403a_9a0f_47b097067f23 o )  ) ) ( type_8c95fbbc_1e43_4cca_8ec5_fdbba995cbce_Class33 ( obj_361149f9_93ce_403a_9a0f_47b097067f23 o )  ) ) ( type_8c95fbbc_1e43_4cca_8ec5_fdbba995cbce_Class22 ( obj_361149f9_93ce_403a_9a0f_47b097067f23 o )  ) ) ( type_8c95fbbc_1e43_4cca_8ec5_fdbba995cbce_Class29 ( obj_361149f9_93ce_403a_9a0f_47b097067f23 o )  ) ) ( type_8c95fbbc_1e43_4cca_8ec5_fdbba995cbce_Class39 ( obj_361149f9_93ce_403a_9a0f_47b097067f23 o )  ) ) ( type_8c95fbbc_1e43_4cca_8ec5_fdbba995cbce_Class50 ( obj_361149f9_93ce_403a_9a0f_47b097067f23 o )  ) ) ( type_8c95fbbc_1e43_4cca_8ec5_fdbba995cbce_Class41 ( obj_361149f9_93ce_403a_9a0f_47b097067f23 o )  ) )):named c5))
(assert (! (exists ((o Int)) (and (and (and (and (and (and (and (and (and ( type_8c95fbbc_1e43_4cca_8ec5_fdbba995cbce_Class14 ( obj_361149f9_93ce_403a_9a0f_47b097067f23 o )  )  ( type_8c95fbbc_1e43_4cca_8ec5_fdbba995cbce_Class45 ( obj_361149f9_93ce_403a_9a0f_47b097067f23 o )  ) ) ( type_8c95fbbc_1e43_4cca_8ec5_fdbba995cbce_Class12 ( obj_361149f9_93ce_403a_9a0f_47b097067f23 o )  ) ) ( type_8c95fbbc_1e43_4cca_8ec5_fdbba995cbce_Class55 ( obj_361149f9_93ce_403a_9a0f_47b097067f23 o )  ) ) ( type_8c95fbbc_1e43_4cca_8ec5_fdbba995cbce_Class33 ( obj_361149f9_93ce_403a_9a0f_47b097067f23 o )  ) ) ( type_8c95fbbc_1e43_4cca_8ec5_fdbba995cbce_Class22 ( obj_361149f9_93ce_403a_9a0f_47b097067f23 o )  ) ) ( type_8c95fbbc_1e43_4cca_8ec5_fdbba995cbce_Class29 ( obj_361149f9_93ce_403a_9a0f_47b097067f23 o )  ) ) ( type_8c95fbbc_1e43_4cca_8ec5_fdbba995cbce_Class39 ( obj_361149f9_93ce_403a_9a0f_47b097067f23 o )  ) ) ( type_8c95fbbc_1e43_4cca_8ec5_fdbba995cbce_Class50 ( obj_361149f9_93ce_403a_9a0f_47b097067f23 o )  ) ) ( type_8c95fbbc_1e43_4cca_8ec5_fdbba995cbce_Class41 ( obj_361149f9_93ce_403a_9a0f_47b097067f23 o )  ) )):named c6))
(assert (! (exists ((o Int)) ( type_8c95fbbc_1e43_4cca_8ec5_fdbba995cbce_Class15 ( obj_361149f9_93ce_403a_9a0f_47b097067f23 o )  ) ):named c7))
(assert (! (exists ((o Int)) (and (and (and (and (and ( type_8c95fbbc_1e43_4cca_8ec5_fdbba995cbce_Class16 ( obj_361149f9_93ce_403a_9a0f_47b097067f23 o )  )  ( type_8c95fbbc_1e43_4cca_8ec5_fdbba995cbce_Class45 ( obj_361149f9_93ce_403a_9a0f_47b097067f23 o )  ) ) ( type_8c95fbbc_1e43_4cca_8ec5_fdbba995cbce_Class12 ( obj_361149f9_93ce_403a_9a0f_47b097067f23 o )  ) ) ( type_8c95fbbc_1e43_4cca_8ec5_fdbba995cbce_Class33 ( obj_361149f9_93ce_403a_9a0f_47b097067f23 o )  ) ) ( type_8c95fbbc_1e43_4cca_8ec5_fdbba995cbce_Class22 ( obj_361149f9_93ce_403a_9a0f_47b097067f23 o )  ) ) ( type_8c95fbbc_1e43_4cca_8ec5_fdbba995cbce_Class39 ( obj_361149f9_93ce_403a_9a0f_47b097067f23 o )  ) )):named c8))
(assert (! (exists ((o Int)) ( type_8c95fbbc_1e43_4cca_8ec5_fdbba995cbce_Class17 ( obj_361149f9_93ce_403a_9a0f_47b097067f23 o )  ) ):named c9))
(assert (! (exists ((o Int)) (and (and (and ( type_8c95fbbc_1e43_4cca_8ec5_fdbba995cbce_Class18 ( obj_361149f9_93ce_403a_9a0f_47b097067f23 o )  )  ( type_8c95fbbc_1e43_4cca_8ec5_fdbba995cbce_Class25 ( obj_361149f9_93ce_403a_9a0f_47b097067f23 o )  ) ) ( type_8c95fbbc_1e43_4cca_8ec5_fdbba995cbce_Class24 ( obj_361149f9_93ce_403a_9a0f_47b097067f23 o )  ) ) ( type_8c95fbbc_1e43_4cca_8ec5_fdbba995cbce_Class39 ( obj_361149f9_93ce_403a_9a0f_47b097067f23 o )  ) )):named c10))
(assert (! (exists ((o Int)) (and (and (and (and (and (and (and (and (and ( type_8c95fbbc_1e43_4cca_8ec5_fdbba995cbce_Class19 ( obj_361149f9_93ce_403a_9a0f_47b097067f23 o )  )  ( type_8c95fbbc_1e43_4cca_8ec5_fdbba995cbce_Class45 ( obj_361149f9_93ce_403a_9a0f_47b097067f23 o )  ) ) ( type_8c95fbbc_1e43_4cca_8ec5_fdbba995cbce_Class12 ( obj_361149f9_93ce_403a_9a0f_47b097067f23 o )  ) ) ( type_8c95fbbc_1e43_4cca_8ec5_fdbba995cbce_Class55 ( obj_361149f9_93ce_403a_9a0f_47b097067f23 o )  ) ) ( type_8c95fbbc_1e43_4cca_8ec5_fdbba995cbce_Class33 ( obj_361149f9_93ce_403a_9a0f_47b097067f23 o )  ) ) ( type_8c95fbbc_1e43_4cca_8ec5_fdbba995cbce_Class22 ( obj_361149f9_93ce_403a_9a0f_47b097067f23 o )  ) ) ( type_8c95fbbc_1e43_4cca_8ec5_fdbba995cbce_Class29 ( obj_361149f9_93ce_403a_9a0f_47b097067f23 o )  ) ) ( type_8c95fbbc_1e43_4cca_8ec5_fdbba995cbce_Class39 ( obj_361149f9_93ce_403a_9a0f_47b097067f23 o )  ) ) ( type_8c95fbbc_1e43_4cca_8ec5_fdbba995cbce_Class50 ( obj_361149f9_93ce_403a_9a0f_47b097067f23 o )  ) ) ( type_8c95fbbc_1e43_4cca_8ec5_fdbba995cbce_Class41 ( obj_361149f9_93ce_403a_9a0f_47b097067f23 o )  ) )):named c11))
(assert (! (exists ((o Int)) ( type_8c95fbbc_1e43_4cca_8ec5_fdbba995cbce_Class2 ( obj_361149f9_93ce_403a_9a0f_47b097067f23 o )  ) ):named c12))
(assert (! (exists ((o Int)) ( type_8c95fbbc_1e43_4cca_8ec5_fdbba995cbce_Class20 ( obj_361149f9_93ce_403a_9a0f_47b097067f23 o )  ) ):named c13))
(assert (! (exists ((o Int)) (and (and (and (and (and (and (and (and (and ( type_8c95fbbc_1e43_4cca_8ec5_fdbba995cbce_Class21 ( obj_361149f9_93ce_403a_9a0f_47b097067f23 o )  )  ( type_8c95fbbc_1e43_4cca_8ec5_fdbba995cbce_Class45 ( obj_361149f9_93ce_403a_9a0f_47b097067f23 o )  ) ) ( type_8c95fbbc_1e43_4cca_8ec5_fdbba995cbce_Class12 ( obj_361149f9_93ce_403a_9a0f_47b097067f23 o )  ) ) ( type_8c95fbbc_1e43_4cca_8ec5_fdbba995cbce_Class33 ( obj_361149f9_93ce_403a_9a0f_47b097067f23 o )  ) ) ( type_8c95fbbc_1e43_4cca_8ec5_fdbba995cbce_Class22 ( obj_361149f9_93ce_403a_9a0f_47b097067f23 o )  ) ) ( type_8c95fbbc_1e43_4cca_8ec5_fdbba995cbce_Class16 ( obj_361149f9_93ce_403a_9a0f_47b097067f23 o )  ) ) ( type_8c95fbbc_1e43_4cca_8ec5_fdbba995cbce_Class29 ( obj_361149f9_93ce_403a_9a0f_47b097067f23 o )  ) ) ( type_8c95fbbc_1e43_4cca_8ec5_fdbba995cbce_Class39 ( obj_361149f9_93ce_403a_9a0f_47b097067f23 o )  ) ) ( type_8c95fbbc_1e43_4cca_8ec5_fdbba995cbce_Class41 ( obj_361149f9_93ce_403a_9a0f_47b097067f23 o )  ) ) ( type_8c95fbbc_1e43_4cca_8ec5_fdbba995cbce_Class51 ( obj_361149f9_93ce_403a_9a0f_47b097067f23 o )  ) )):named c14))
(assert (! (exists ((o Int)) (and ( type_8c95fbbc_1e43_4cca_8ec5_fdbba995cbce_Class22 ( obj_361149f9_93ce_403a_9a0f_47b097067f23 o )  )  ( type_8c95fbbc_1e43_4cca_8ec5_fdbba995cbce_Class39 ( obj_361149f9_93ce_403a_9a0f_47b097067f23 o )  ) )):named c15))
(assert (! (exists ((o Int)) (and (and (and (and ( type_8c95fbbc_1e43_4cca_8ec5_fdbba995cbce_Class23 ( obj_361149f9_93ce_403a_9a0f_47b097067f23 o )  )  ( type_8c95fbbc_1e43_4cca_8ec5_fdbba995cbce_Class25 ( obj_361149f9_93ce_403a_9a0f_47b097067f23 o )  ) ) ( type_8c95fbbc_1e43_4cca_8ec5_fdbba995cbce_Class24 ( obj_361149f9_93ce_403a_9a0f_47b097067f23 o )  ) ) ( type_8c95fbbc_1e43_4cca_8ec5_fdbba995cbce_Class39 ( obj_361149f9_93ce_403a_9a0f_47b097067f23 o )  ) ) ( type_8c95fbbc_1e43_4cca_8ec5_fdbba995cbce_Class5 ( obj_361149f9_93ce_403a_9a0f_47b097067f23 o )  ) )):named c16))
(assert (! (exists ((o Int)) (and (and ( type_8c95fbbc_1e43_4cca_8ec5_fdbba995cbce_Class24 ( obj_361149f9_93ce_403a_9a0f_47b097067f23 o )  )  ( type_8c95fbbc_1e43_4cca_8ec5_fdbba995cbce_Class25 ( obj_361149f9_93ce_403a_9a0f_47b097067f23 o )  ) ) ( type_8c95fbbc_1e43_4cca_8ec5_fdbba995cbce_Class39 ( obj_361149f9_93ce_403a_9a0f_47b097067f23 o )  ) )):named c17))
(assert (! (exists ((o Int)) (and ( type_8c95fbbc_1e43_4cca_8ec5_fdbba995cbce_Class25 ( obj_361149f9_93ce_403a_9a0f_47b097067f23 o )  )  ( type_8c95fbbc_1e43_4cca_8ec5_fdbba995cbce_Class39 ( obj_361149f9_93ce_403a_9a0f_47b097067f23 o )  ) )):named c18))
(assert (! (exists ((o Int)) ( type_8c95fbbc_1e43_4cca_8ec5_fdbba995cbce_Class26 ( obj_361149f9_93ce_403a_9a0f_47b097067f23 o )  ) ):named c19))
(assert (! (exists ((o Int)) ( type_8c95fbbc_1e43_4cca_8ec5_fdbba995cbce_Class27 ( obj_361149f9_93ce_403a_9a0f_47b097067f23 o )  ) ):named c20))
(assert (! (exists ((o Int)) (and (and (and (and (and (and (and ( type_8c95fbbc_1e43_4cca_8ec5_fdbba995cbce_Class28 ( obj_361149f9_93ce_403a_9a0f_47b097067f23 o )  )  ( type_8c95fbbc_1e43_4cca_8ec5_fdbba995cbce_Class45 ( obj_361149f9_93ce_403a_9a0f_47b097067f23 o )  ) ) ( type_8c95fbbc_1e43_4cca_8ec5_fdbba995cbce_Class12 ( obj_361149f9_93ce_403a_9a0f_47b097067f23 o )  ) ) ( type_8c95fbbc_1e43_4cca_8ec5_fdbba995cbce_Class33 ( obj_361149f9_93ce_403a_9a0f_47b097067f23 o )  ) ) ( type_8c95fbbc_1e43_4cca_8ec5_fdbba995cbce_Class22 ( obj_361149f9_93ce_403a_9a0f_47b097067f23 o )  ) ) ( type_8c95fbbc_1e43_4cca_8ec5_fdbba995cbce_Class29 ( obj_361149f9_93ce_403a_9a0f_47b097067f23 o )  ) ) ( type_8c95fbbc_1e43_4cca_8ec5_fdbba995cbce_Class39 ( obj_361149f9_93ce_403a_9a0f_47b097067f23 o )  ) ) ( type_8c95fbbc_1e43_4cca_8ec5_fdbba995cbce_Class41 ( obj_361149f9_93ce_403a_9a0f_47b097067f23 o )  ) )):named c21))
(assert (! (exists ((o Int)) (and (and (and (and (and (and ( type_8c95fbbc_1e43_4cca_8ec5_fdbba995cbce_Class29 ( obj_361149f9_93ce_403a_9a0f_47b097067f23 o )  )  ( type_8c95fbbc_1e43_4cca_8ec5_fdbba995cbce_Class45 ( obj_361149f9_93ce_403a_9a0f_47b097067f23 o )  ) ) ( type_8c95fbbc_1e43_4cca_8ec5_fdbba995cbce_Class12 ( obj_361149f9_93ce_403a_9a0f_47b097067f23 o )  ) ) ( type_8c95fbbc_1e43_4cca_8ec5_fdbba995cbce_Class33 ( obj_361149f9_93ce_403a_9a0f_47b097067f23 o )  ) ) ( type_8c95fbbc_1e43_4cca_8ec5_fdbba995cbce_Class22 ( obj_361149f9_93ce_403a_9a0f_47b097067f23 o )  ) ) ( type_8c95fbbc_1e43_4cca_8ec5_fdbba995cbce_Class39 ( obj_361149f9_93ce_403a_9a0f_47b097067f23 o )  ) ) ( type_8c95fbbc_1e43_4cca_8ec5_fdbba995cbce_Class41 ( obj_361149f9_93ce_403a_9a0f_47b097067f23 o )  ) )):named c22))
(assert (! (exists ((o Int)) (and (and (and ( type_8c95fbbc_1e43_4cca_8ec5_fdbba995cbce_Class3 ( obj_361149f9_93ce_403a_9a0f_47b097067f23 o )  )  ( type_8c95fbbc_1e43_4cca_8ec5_fdbba995cbce_Class25 ( obj_361149f9_93ce_403a_9a0f_47b097067f23 o )  ) ) ( type_8c95fbbc_1e43_4cca_8ec5_fdbba995cbce_Class24 ( obj_361149f9_93ce_403a_9a0f_47b097067f23 o )  ) ) ( type_8c95fbbc_1e43_4cca_8ec5_fdbba995cbce_Class39 ( obj_361149f9_93ce_403a_9a0f_47b097067f23 o )  ) )):named c23))
(assert (! (exists ((o Int)) (and ( type_8c95fbbc_1e43_4cca_8ec5_fdbba995cbce_Class30 ( obj_361149f9_93ce_403a_9a0f_47b097067f23 o )  )  ( type_8c95fbbc_1e43_4cca_8ec5_fdbba995cbce_Class39 ( obj_361149f9_93ce_403a_9a0f_47b097067f23 o )  ) )):named c24))
(assert (! (exists ((o Int)) (and (and (and (and (and ( type_8c95fbbc_1e43_4cca_8ec5_fdbba995cbce_Class31 ( obj_361149f9_93ce_403a_9a0f_47b097067f23 o )  )  ( type_8c95fbbc_1e43_4cca_8ec5_fdbba995cbce_Class45 ( obj_361149f9_93ce_403a_9a0f_47b097067f23 o )  ) ) ( type_8c95fbbc_1e43_4cca_8ec5_fdbba995cbce_Class12 ( obj_361149f9_93ce_403a_9a0f_47b097067f23 o )  ) ) ( type_8c95fbbc_1e43_4cca_8ec5_fdbba995cbce_Class33 ( obj_361149f9_93ce_403a_9a0f_47b097067f23 o )  ) ) ( type_8c95fbbc_1e43_4cca_8ec5_fdbba995cbce_Class22 ( obj_361149f9_93ce_403a_9a0f_47b097067f23 o )  ) ) ( type_8c95fbbc_1e43_4cca_8ec5_fdbba995cbce_Class39 ( obj_361149f9_93ce_403a_9a0f_47b097067f23 o )  ) )):named c25))
(assert (! (exists ((o Int)) ( type_8c95fbbc_1e43_4cca_8ec5_fdbba995cbce_Class32 ( obj_361149f9_93ce_403a_9a0f_47b097067f23 o )  ) ):named c26))
(assert (! (exists ((o Int)) (and (and ( type_8c95fbbc_1e43_4cca_8ec5_fdbba995cbce_Class33 ( obj_361149f9_93ce_403a_9a0f_47b097067f23 o )  )  ( type_8c95fbbc_1e43_4cca_8ec5_fdbba995cbce_Class22 ( obj_361149f9_93ce_403a_9a0f_47b097067f23 o )  ) ) ( type_8c95fbbc_1e43_4cca_8ec5_fdbba995cbce_Class39 ( obj_361149f9_93ce_403a_9a0f_47b097067f23 o )  ) )):named c27))
(assert (! (exists ((o Int)) (and (and (and ( type_8c95fbbc_1e43_4cca_8ec5_fdbba995cbce_Class34 ( obj_361149f9_93ce_403a_9a0f_47b097067f23 o )  )  ( type_8c95fbbc_1e43_4cca_8ec5_fdbba995cbce_Class25 ( obj_361149f9_93ce_403a_9a0f_47b097067f23 o )  ) ) ( type_8c95fbbc_1e43_4cca_8ec5_fdbba995cbce_Class24 ( obj_361149f9_93ce_403a_9a0f_47b097067f23 o )  ) ) ( type_8c95fbbc_1e43_4cca_8ec5_fdbba995cbce_Class39 ( obj_361149f9_93ce_403a_9a0f_47b097067f23 o )  ) )):named c28))
(assert (! (exists ((o Int)) (and (and ( type_8c95fbbc_1e43_4cca_8ec5_fdbba995cbce_Class35 ( obj_361149f9_93ce_403a_9a0f_47b097067f23 o )  )  ( type_8c95fbbc_1e43_4cca_8ec5_fdbba995cbce_Class39 ( obj_361149f9_93ce_403a_9a0f_47b097067f23 o )  ) ) ( type_8c95fbbc_1e43_4cca_8ec5_fdbba995cbce_Class30 ( obj_361149f9_93ce_403a_9a0f_47b097067f23 o )  ) )):named c29))
(assert (! (exists ((o Int)) ( type_8c95fbbc_1e43_4cca_8ec5_fdbba995cbce_Class36 ( obj_361149f9_93ce_403a_9a0f_47b097067f23 o )  ) ):named c30))
(assert (! (exists ((o Int)) ( type_8c95fbbc_1e43_4cca_8ec5_fdbba995cbce_Class37 ( obj_361149f9_93ce_403a_9a0f_47b097067f23 o )  ) ):named c31))
(assert (! (exists ((o Int)) ( type_8c95fbbc_1e43_4cca_8ec5_fdbba995cbce_Class38 ( obj_361149f9_93ce_403a_9a0f_47b097067f23 o )  ) ):named c32))
(assert (! (exists ((o Int)) ( type_8c95fbbc_1e43_4cca_8ec5_fdbba995cbce_Class39 ( obj_361149f9_93ce_403a_9a0f_47b097067f23 o )  ) ):named c33))
(assert (! (exists ((o Int)) ( type_8c95fbbc_1e43_4cca_8ec5_fdbba995cbce_Class4 ( obj_361149f9_93ce_403a_9a0f_47b097067f23 o )  ) ):named c34))
(assert (! (exists ((o Int)) (and (and (and (and (and (and (and (and (and ( type_8c95fbbc_1e43_4cca_8ec5_fdbba995cbce_Class40 ( obj_361149f9_93ce_403a_9a0f_47b097067f23 o )  )  ( type_8c95fbbc_1e43_4cca_8ec5_fdbba995cbce_Class45 ( obj_361149f9_93ce_403a_9a0f_47b097067f23 o )  ) ) ( type_8c95fbbc_1e43_4cca_8ec5_fdbba995cbce_Class12 ( obj_361149f9_93ce_403a_9a0f_47b097067f23 o )  ) ) ( type_8c95fbbc_1e43_4cca_8ec5_fdbba995cbce_Class55 ( obj_361149f9_93ce_403a_9a0f_47b097067f23 o )  ) ) ( type_8c95fbbc_1e43_4cca_8ec5_fdbba995cbce_Class33 ( obj_361149f9_93ce_403a_9a0f_47b097067f23 o )  ) ) ( type_8c95fbbc_1e43_4cca_8ec5_fdbba995cbce_Class22 ( obj_361149f9_93ce_403a_9a0f_47b097067f23 o )  ) ) ( type_8c95fbbc_1e43_4cca_8ec5_fdbba995cbce_Class29 ( obj_361149f9_93ce_403a_9a0f_47b097067f23 o )  ) ) ( type_8c95fbbc_1e43_4cca_8ec5_fdbba995cbce_Class39 ( obj_361149f9_93ce_403a_9a0f_47b097067f23 o )  ) ) ( type_8c95fbbc_1e43_4cca_8ec5_fdbba995cbce_Class50 ( obj_361149f9_93ce_403a_9a0f_47b097067f23 o )  ) ) ( type_8c95fbbc_1e43_4cca_8ec5_fdbba995cbce_Class41 ( obj_361149f9_93ce_403a_9a0f_47b097067f23 o )  ) )):named c35))
(assert (! (exists ((o Int)) (and (and (and (and (and ( type_8c95fbbc_1e43_4cca_8ec5_fdbba995cbce_Class41 ( obj_361149f9_93ce_403a_9a0f_47b097067f23 o )  )  ( type_8c95fbbc_1e43_4cca_8ec5_fdbba995cbce_Class45 ( obj_361149f9_93ce_403a_9a0f_47b097067f23 o )  ) ) ( type_8c95fbbc_1e43_4cca_8ec5_fdbba995cbce_Class12 ( obj_361149f9_93ce_403a_9a0f_47b097067f23 o )  ) ) ( type_8c95fbbc_1e43_4cca_8ec5_fdbba995cbce_Class33 ( obj_361149f9_93ce_403a_9a0f_47b097067f23 o )  ) ) ( type_8c95fbbc_1e43_4cca_8ec5_fdbba995cbce_Class22 ( obj_361149f9_93ce_403a_9a0f_47b097067f23 o )  ) ) ( type_8c95fbbc_1e43_4cca_8ec5_fdbba995cbce_Class39 ( obj_361149f9_93ce_403a_9a0f_47b097067f23 o )  ) )):named c36))
(assert (! (exists ((o Int)) (and ( type_8c95fbbc_1e43_4cca_8ec5_fdbba995cbce_Class42 ( obj_361149f9_93ce_403a_9a0f_47b097067f23 o )  )  ( type_8c95fbbc_1e43_4cca_8ec5_fdbba995cbce_Class39 ( obj_361149f9_93ce_403a_9a0f_47b097067f23 o )  ) )):named c37))
(assert (! (exists ((o Int)) ( type_8c95fbbc_1e43_4cca_8ec5_fdbba995cbce_Class43 ( obj_361149f9_93ce_403a_9a0f_47b097067f23 o )  ) ):named c38))
(assert (! (exists ((o Int)) (and (and (and (and (and (and (and ( type_8c95fbbc_1e43_4cca_8ec5_fdbba995cbce_Class44 ( obj_361149f9_93ce_403a_9a0f_47b097067f23 o )  )  ( type_8c95fbbc_1e43_4cca_8ec5_fdbba995cbce_Class45 ( obj_361149f9_93ce_403a_9a0f_47b097067f23 o )  ) ) ( type_8c95fbbc_1e43_4cca_8ec5_fdbba995cbce_Class12 ( obj_361149f9_93ce_403a_9a0f_47b097067f23 o )  ) ) ( type_8c95fbbc_1e43_4cca_8ec5_fdbba995cbce_Class33 ( obj_361149f9_93ce_403a_9a0f_47b097067f23 o )  ) ) ( type_8c95fbbc_1e43_4cca_8ec5_fdbba995cbce_Class22 ( obj_361149f9_93ce_403a_9a0f_47b097067f23 o )  ) ) ( type_8c95fbbc_1e43_4cca_8ec5_fdbba995cbce_Class29 ( obj_361149f9_93ce_403a_9a0f_47b097067f23 o )  ) ) ( type_8c95fbbc_1e43_4cca_8ec5_fdbba995cbce_Class39 ( obj_361149f9_93ce_403a_9a0f_47b097067f23 o )  ) ) ( type_8c95fbbc_1e43_4cca_8ec5_fdbba995cbce_Class41 ( obj_361149f9_93ce_403a_9a0f_47b097067f23 o )  ) )):named c39))
(assert (! (exists ((o Int)) (and (and (and (and ( type_8c95fbbc_1e43_4cca_8ec5_fdbba995cbce_Class45 ( obj_361149f9_93ce_403a_9a0f_47b097067f23 o )  )  ( type_8c95fbbc_1e43_4cca_8ec5_fdbba995cbce_Class12 ( obj_361149f9_93ce_403a_9a0f_47b097067f23 o )  ) ) ( type_8c95fbbc_1e43_4cca_8ec5_fdbba995cbce_Class33 ( obj_361149f9_93ce_403a_9a0f_47b097067f23 o )  ) ) ( type_8c95fbbc_1e43_4cca_8ec5_fdbba995cbce_Class22 ( obj_361149f9_93ce_403a_9a0f_47b097067f23 o )  ) ) ( type_8c95fbbc_1e43_4cca_8ec5_fdbba995cbce_Class39 ( obj_361149f9_93ce_403a_9a0f_47b097067f23 o )  ) )):named c40))
(assert (! (exists ((o Int)) (and (and ( type_8c95fbbc_1e43_4cca_8ec5_fdbba995cbce_Class46 ( obj_361149f9_93ce_403a_9a0f_47b097067f23 o )  )  ( type_8c95fbbc_1e43_4cca_8ec5_fdbba995cbce_Class39 ( obj_361149f9_93ce_403a_9a0f_47b097067f23 o )  ) ) ( type_8c95fbbc_1e43_4cca_8ec5_fdbba995cbce_Class5 ( obj_361149f9_93ce_403a_9a0f_47b097067f23 o )  ) )):named c41))
(assert (! (exists ((o Int)) ( type_8c95fbbc_1e43_4cca_8ec5_fdbba995cbce_Class47 ( obj_361149f9_93ce_403a_9a0f_47b097067f23 o )  ) ):named c42))
(assert (! (exists ((o Int)) (and (and (and (and (and (and (and (and (and ( type_8c95fbbc_1e43_4cca_8ec5_fdbba995cbce_Class48 ( obj_361149f9_93ce_403a_9a0f_47b097067f23 o )  )  ( type_8c95fbbc_1e43_4cca_8ec5_fdbba995cbce_Class45 ( obj_361149f9_93ce_403a_9a0f_47b097067f23 o )  ) ) ( type_8c95fbbc_1e43_4cca_8ec5_fdbba995cbce_Class12 ( obj_361149f9_93ce_403a_9a0f_47b097067f23 o )  ) ) ( type_8c95fbbc_1e43_4cca_8ec5_fdbba995cbce_Class55 ( obj_361149f9_93ce_403a_9a0f_47b097067f23 o )  ) ) ( type_8c95fbbc_1e43_4cca_8ec5_fdbba995cbce_Class33 ( obj_361149f9_93ce_403a_9a0f_47b097067f23 o )  ) ) ( type_8c95fbbc_1e43_4cca_8ec5_fdbba995cbce_Class22 ( obj_361149f9_93ce_403a_9a0f_47b097067f23 o )  ) ) ( type_8c95fbbc_1e43_4cca_8ec5_fdbba995cbce_Class29 ( obj_361149f9_93ce_403a_9a0f_47b097067f23 o )  ) ) ( type_8c95fbbc_1e43_4cca_8ec5_fdbba995cbce_Class39 ( obj_361149f9_93ce_403a_9a0f_47b097067f23 o )  ) ) ( type_8c95fbbc_1e43_4cca_8ec5_fdbba995cbce_Class50 ( obj_361149f9_93ce_403a_9a0f_47b097067f23 o )  ) ) ( type_8c95fbbc_1e43_4cca_8ec5_fdbba995cbce_Class41 ( obj_361149f9_93ce_403a_9a0f_47b097067f23 o )  ) )):named c43))
(assert (! (exists ((o Int)) (and (and (and (and (and (and (and (and (and ( type_8c95fbbc_1e43_4cca_8ec5_fdbba995cbce_Class49 ( obj_361149f9_93ce_403a_9a0f_47b097067f23 o )  )  ( type_8c95fbbc_1e43_4cca_8ec5_fdbba995cbce_Class45 ( obj_361149f9_93ce_403a_9a0f_47b097067f23 o )  ) ) ( type_8c95fbbc_1e43_4cca_8ec5_fdbba995cbce_Class12 ( obj_361149f9_93ce_403a_9a0f_47b097067f23 o )  ) ) ( type_8c95fbbc_1e43_4cca_8ec5_fdbba995cbce_Class55 ( obj_361149f9_93ce_403a_9a0f_47b097067f23 o )  ) ) ( type_8c95fbbc_1e43_4cca_8ec5_fdbba995cbce_Class33 ( obj_361149f9_93ce_403a_9a0f_47b097067f23 o )  ) ) ( type_8c95fbbc_1e43_4cca_8ec5_fdbba995cbce_Class22 ( obj_361149f9_93ce_403a_9a0f_47b097067f23 o )  ) ) ( type_8c95fbbc_1e43_4cca_8ec5_fdbba995cbce_Class29 ( obj_361149f9_93ce_403a_9a0f_47b097067f23 o )  ) ) ( type_8c95fbbc_1e43_4cca_8ec5_fdbba995cbce_Class39 ( obj_361149f9_93ce_403a_9a0f_47b097067f23 o )  ) ) ( type_8c95fbbc_1e43_4cca_8ec5_fdbba995cbce_Class50 ( obj_361149f9_93ce_403a_9a0f_47b097067f23 o )  ) ) ( type_8c95fbbc_1e43_4cca_8ec5_fdbba995cbce_Class41 ( obj_361149f9_93ce_403a_9a0f_47b097067f23 o )  ) )):named c44))
(assert (! (exists ((o Int)) (and ( type_8c95fbbc_1e43_4cca_8ec5_fdbba995cbce_Class5 ( obj_361149f9_93ce_403a_9a0f_47b097067f23 o )  )  ( type_8c95fbbc_1e43_4cca_8ec5_fdbba995cbce_Class39 ( obj_361149f9_93ce_403a_9a0f_47b097067f23 o )  ) )):named c45))
(assert (! (exists ((o Int)) (and (and (and (and (and (and (and (and ( type_8c95fbbc_1e43_4cca_8ec5_fdbba995cbce_Class50 ( obj_361149f9_93ce_403a_9a0f_47b097067f23 o )  )  ( type_8c95fbbc_1e43_4cca_8ec5_fdbba995cbce_Class45 ( obj_361149f9_93ce_403a_9a0f_47b097067f23 o )  ) ) ( type_8c95fbbc_1e43_4cca_8ec5_fdbba995cbce_Class12 ( obj_361149f9_93ce_403a_9a0f_47b097067f23 o )  ) ) ( type_8c95fbbc_1e43_4cca_8ec5_fdbba995cbce_Class55 ( obj_361149f9_93ce_403a_9a0f_47b097067f23 o )  ) ) ( type_8c95fbbc_1e43_4cca_8ec5_fdbba995cbce_Class33 ( obj_361149f9_93ce_403a_9a0f_47b097067f23 o )  ) ) ( type_8c95fbbc_1e43_4cca_8ec5_fdbba995cbce_Class22 ( obj_361149f9_93ce_403a_9a0f_47b097067f23 o )  ) ) ( type_8c95fbbc_1e43_4cca_8ec5_fdbba995cbce_Class29 ( obj_361149f9_93ce_403a_9a0f_47b097067f23 o )  ) ) ( type_8c95fbbc_1e43_4cca_8ec5_fdbba995cbce_Class39 ( obj_361149f9_93ce_403a_9a0f_47b097067f23 o )  ) ) ( type_8c95fbbc_1e43_4cca_8ec5_fdbba995cbce_Class41 ( obj_361149f9_93ce_403a_9a0f_47b097067f23 o )  ) )):named c46))
(assert (! (exists ((o Int)) (and (and (and (and (and (and ( type_8c95fbbc_1e43_4cca_8ec5_fdbba995cbce_Class51 ( obj_361149f9_93ce_403a_9a0f_47b097067f23 o )  )  ( type_8c95fbbc_1e43_4cca_8ec5_fdbba995cbce_Class45 ( obj_361149f9_93ce_403a_9a0f_47b097067f23 o )  ) ) ( type_8c95fbbc_1e43_4cca_8ec5_fdbba995cbce_Class12 ( obj_361149f9_93ce_403a_9a0f_47b097067f23 o )  ) ) ( type_8c95fbbc_1e43_4cca_8ec5_fdbba995cbce_Class33 ( obj_361149f9_93ce_403a_9a0f_47b097067f23 o )  ) ) ( type_8c95fbbc_1e43_4cca_8ec5_fdbba995cbce_Class22 ( obj_361149f9_93ce_403a_9a0f_47b097067f23 o )  ) ) ( type_8c95fbbc_1e43_4cca_8ec5_fdbba995cbce_Class16 ( obj_361149f9_93ce_403a_9a0f_47b097067f23 o )  ) ) ( type_8c95fbbc_1e43_4cca_8ec5_fdbba995cbce_Class39 ( obj_361149f9_93ce_403a_9a0f_47b097067f23 o )  ) )):named c47))
(assert (! (exists ((o Int)) (and (and (and (and (and ( type_8c95fbbc_1e43_4cca_8ec5_fdbba995cbce_Class52 ( obj_361149f9_93ce_403a_9a0f_47b097067f23 o )  )  ( type_8c95fbbc_1e43_4cca_8ec5_fdbba995cbce_Class45 ( obj_361149f9_93ce_403a_9a0f_47b097067f23 o )  ) ) ( type_8c95fbbc_1e43_4cca_8ec5_fdbba995cbce_Class12 ( obj_361149f9_93ce_403a_9a0f_47b097067f23 o )  ) ) ( type_8c95fbbc_1e43_4cca_8ec5_fdbba995cbce_Class33 ( obj_361149f9_93ce_403a_9a0f_47b097067f23 o )  ) ) ( type_8c95fbbc_1e43_4cca_8ec5_fdbba995cbce_Class22 ( obj_361149f9_93ce_403a_9a0f_47b097067f23 o )  ) ) ( type_8c95fbbc_1e43_4cca_8ec5_fdbba995cbce_Class39 ( obj_361149f9_93ce_403a_9a0f_47b097067f23 o )  ) )):named c48))
(assert (! (exists ((o Int)) ( type_8c95fbbc_1e43_4cca_8ec5_fdbba995cbce_Class53 ( obj_361149f9_93ce_403a_9a0f_47b097067f23 o )  ) ):named c49))
(assert (! (exists ((o Int)) ( type_8c95fbbc_1e43_4cca_8ec5_fdbba995cbce_Class54 ( obj_361149f9_93ce_403a_9a0f_47b097067f23 o )  ) ):named c50))
(assert (! (exists ((o Int)) (and (and (and (and (and (and (and ( type_8c95fbbc_1e43_4cca_8ec5_fdbba995cbce_Class55 ( obj_361149f9_93ce_403a_9a0f_47b097067f23 o )  )  ( type_8c95fbbc_1e43_4cca_8ec5_fdbba995cbce_Class45 ( obj_361149f9_93ce_403a_9a0f_47b097067f23 o )  ) ) ( type_8c95fbbc_1e43_4cca_8ec5_fdbba995cbce_Class12 ( obj_361149f9_93ce_403a_9a0f_47b097067f23 o )  ) ) ( type_8c95fbbc_1e43_4cca_8ec5_fdbba995cbce_Class33 ( obj_361149f9_93ce_403a_9a0f_47b097067f23 o )  ) ) ( type_8c95fbbc_1e43_4cca_8ec5_fdbba995cbce_Class22 ( obj_361149f9_93ce_403a_9a0f_47b097067f23 o )  ) ) ( type_8c95fbbc_1e43_4cca_8ec5_fdbba995cbce_Class29 ( obj_361149f9_93ce_403a_9a0f_47b097067f23 o )  ) ) ( type_8c95fbbc_1e43_4cca_8ec5_fdbba995cbce_Class39 ( obj_361149f9_93ce_403a_9a0f_47b097067f23 o )  ) ) ( type_8c95fbbc_1e43_4cca_8ec5_fdbba995cbce_Class41 ( obj_361149f9_93ce_403a_9a0f_47b097067f23 o )  ) )):named c51))
(assert (! (exists ((o Int)) ( type_8c95fbbc_1e43_4cca_8ec5_fdbba995cbce_Class6 ( obj_361149f9_93ce_403a_9a0f_47b097067f23 o )  ) ):named c52))
(assert (! (exists ((o Int)) (and (and (and (and (and (and (and (and (and ( type_8c95fbbc_1e43_4cca_8ec5_fdbba995cbce_Class7 ( obj_361149f9_93ce_403a_9a0f_47b097067f23 o )  )  ( type_8c95fbbc_1e43_4cca_8ec5_fdbba995cbce_Class45 ( obj_361149f9_93ce_403a_9a0f_47b097067f23 o )  ) ) ( type_8c95fbbc_1e43_4cca_8ec5_fdbba995cbce_Class12 ( obj_361149f9_93ce_403a_9a0f_47b097067f23 o )  ) ) ( type_8c95fbbc_1e43_4cca_8ec5_fdbba995cbce_Class55 ( obj_361149f9_93ce_403a_9a0f_47b097067f23 o )  ) ) ( type_8c95fbbc_1e43_4cca_8ec5_fdbba995cbce_Class33 ( obj_361149f9_93ce_403a_9a0f_47b097067f23 o )  ) ) ( type_8c95fbbc_1e43_4cca_8ec5_fdbba995cbce_Class22 ( obj_361149f9_93ce_403a_9a0f_47b097067f23 o )  ) ) ( type_8c95fbbc_1e43_4cca_8ec5_fdbba995cbce_Class29 ( obj_361149f9_93ce_403a_9a0f_47b097067f23 o )  ) ) ( type_8c95fbbc_1e43_4cca_8ec5_fdbba995cbce_Class39 ( obj_361149f9_93ce_403a_9a0f_47b097067f23 o )  ) ) ( type_8c95fbbc_1e43_4cca_8ec5_fdbba995cbce_Class50 ( obj_361149f9_93ce_403a_9a0f_47b097067f23 o )  ) ) ( type_8c95fbbc_1e43_4cca_8ec5_fdbba995cbce_Class41 ( obj_361149f9_93ce_403a_9a0f_47b097067f23 o )  ) )):named c53))
(assert (! (exists ((o Int)) (and ( type_8c95fbbc_1e43_4cca_8ec5_fdbba995cbce_Class8 ( obj_361149f9_93ce_403a_9a0f_47b097067f23 o )  )  ( type_8c95fbbc_1e43_4cca_8ec5_fdbba995cbce_Class39 ( obj_361149f9_93ce_403a_9a0f_47b097067f23 o )  ) )):named c54))
(assert (! (exists ((o Int)) ( type_8c95fbbc_1e43_4cca_8ec5_fdbba995cbce_Class9 ( obj_361149f9_93ce_403a_9a0f_47b097067f23 o )  ) ):named c55))

 ;end of formula 